(set-info :source |printed by MathSAT|)
(declare-fun |main::in_a0@2| () (_ FloatingPoint 8 24))
(declare-fun |fmax_float::x@2| () (_ FloatingPoint 8 24))
(declare-fun |__fpclassify_float::x@2| () (_ FloatingPoint 8 24))
(declare-fun |__ADDRESS_OF___fpclassify_float::gf_u@| () (_ BitVec 32))
(declare-fun |__fpclassify_float::gf_u$value@3| () (_ FloatingPoint 8 24))
(declare-fun |__fpclassify_float::gf_u$word@3| () (_ BitVec 32))
(declare-fun |__fpclassify_float::in_fa0@3| () (_ BitVec 32))
(declare-fun |__fpclassify_float::iVar1@3| () (_ BitVec 32))
(declare-fun |__fpclassify_float::__retval__@2| () (_ BitVec 32))
(declare-fun |fmax_float::extraout_var@2| () (_ BitVec 32))
(declare-fun |__fpclassify_float::__retval__@3| () (_ BitVec 32))
(declare-fun |fmax_float::x_00@4| () (_ FloatingPoint 8 24))
(declare-fun |fmax_float::__retval__@2| () (_ FloatingPoint 8 24))
(declare-fun |main::extraout_fa0@2| () (_ FloatingPoint 8 24))
(declare-fun |fmax_float::__CPAchecker_TMP_0@4| () (_ BitVec 32))
(declare-fun |__fpclassify_float::x@4| () (_ FloatingPoint 8 24))
(declare-fun |__fpclassify_float::gf_u$value@6| () (_ FloatingPoint 8 24))
(declare-fun |__fpclassify_float::gf_u$word@6| () (_ BitVec 32))
(declare-fun |__fpclassify_float::in_fa0@6| () (_ BitVec 32))
(declare-fun |__fpclassify_float::iVar1@6| () (_ BitVec 32))
(declare-fun |fmax_float::__CPAchecker_TMP_1@4| () (_ BitVec 32))
(declare-fun |fmax_float::x_00@6| () (_ FloatingPoint 8 24))
(declare-fun |main::x_00@6| () (_ FloatingPoint 8 24))
(assert (let ((.def_513 (= |fmax_float::__retval__@2| |main::x_00@6|)))(let ((.def_510 (= |fmax_float::__retval__@2| |fmax_float::x_00@6|)))(let ((.def_506 ((_ to_fp 8 24) RNE |fmax_float::__CPAchecker_TMP_1@4|)))(let ((.def_508 (= .def_506 |fmax_float::x_00@6|)))(let ((.def_504 (= |__fpclassify_float::__retval__@3| |fmax_float::__CPAchecker_TMP_1@4|)))(let ((.def_501 (= |__fpclassify_float::__retval__@3| |__fpclassify_float::iVar1@6|)))(let ((.def_499 (= |__fpclassify_float::iVar1@6| (_ bv4 32))))(let ((.def_494 (bvult (_ bv2139095039 32) |__fpclassify_float::in_fa0@6|)))(let ((.def_496 (not .def_494)))(let ((.def_490 (bvult |__fpclassify_float::in_fa0@6| (_ bv8388608 32))))(let ((.def_492 (not .def_490)))(let ((.def_486 (= |__fpclassify_float::in_fa0@6| (_ bv2147483648 32))))(let ((.def_488 (not .def_486)))(let ((.def_482 (= |__fpclassify_float::in_fa0@6| (_ bv0 32))))(let ((.def_484 (not .def_482)))(let ((.def_480 (= |__fpclassify_float::gf_u$word@6| |__fpclassify_float::in_fa0@6|)))(let ((.def_474 (fp.as_ieee_bv |__fpclassify_float::x@4|)))(let ((.def_476 (= .def_474 |__fpclassify_float::gf_u$word@6|)))(let ((.def_473 (= |__fpclassify_float::x@4| |__fpclassify_float::gf_u$value@6|)))(let ((.def_477 (and .def_473 .def_476)))(let ((.def_470 (= |fmax_float::x_00@4| |__fpclassify_float::x@4|)))(let ((.def_465 (fp.eq (fp #b0 #b00000000 #b00000000000000000000000) |fmax_float::x_00@4|)))(let ((.def_466 (not .def_465)))(let ((.def_461 ((_ to_fp 8 24) RNE |fmax_float::__CPAchecker_TMP_0@4|)))(let ((.def_462 (= |fmax_float::x_00@4| .def_461)))(let ((.def_459 (= |__fpclassify_float::__retval__@2| |fmax_float::__CPAchecker_TMP_0@4|)))(let ((.def_126 (= |__fpclassify_float::iVar1@3| (_ bv2 32))))(let ((.def_36 (= |__fpclassify_float::in_fa0@3| (_ bv0 32))))(let ((.def_34 (= |__fpclassify_float::gf_u$word@3| |__fpclassify_float::in_fa0@3|)))(let ((.def_28 (fp.as_ieee_bv |__fpclassify_float::x@2|)))(let ((.def_30 (= .def_28 |__fpclassify_float::gf_u$word@3|)))(let ((.def_27 (= |__fpclassify_float::x@2| |__fpclassify_float::gf_u$value@3|)))(let ((.def_31 (and .def_27 .def_30)))(let ((.def_18 (bvurem |__ADDRESS_OF___fpclassify_float::gf_u@| (_ bv4 32))))(let ((.def_19 (= .def_18 (_ bv0 32))))(let ((.def_17 (bvslt (_ bv0 32) |__ADDRESS_OF___fpclassify_float::gf_u@|)))(let ((.def_23 (and .def_17 .def_19)))(let ((.def_21 (bvadd (_ bv4 32) |__ADDRESS_OF___fpclassify_float::gf_u@|)))(let ((.def_22 (bvslt (_ bv0 32) .def_21)))(let ((.def_24 (and .def_22 .def_23)))(let ((.def_14 (= |fmax_float::x@2| |__fpclassify_float::x@2|)))(let ((.def_12 (= |main::in_a0@2| |fmax_float::x@2|)))(let ((.def_15 (and .def_12 .def_14)))(let ((.def_25 (and .def_15 .def_24)))(let ((.def_32 (and .def_25 .def_31)))(let ((.def_35 (and .def_32 .def_34)))(let ((.def_39 (and .def_35 .def_36)))(let ((.def_456 (and .def_39 .def_126)))(let ((.def_130 (= |__fpclassify_float::iVar1@3| |__fpclassify_float::__retval__@2|)))(let ((.def_457 (and .def_130 .def_456)))(let ((.def_460 (and .def_457 .def_459)))(let ((.def_463 (and .def_460 .def_462)))(let ((.def_140 (= |fmax_float::extraout_var@2| (_ bv0 32))))(let ((.def_464 (and .def_140 .def_463)))(let ((.def_468 (and .def_464 .def_466)))(let ((.def_471 (and .def_468 .def_470)))(let ((.def_478 (and .def_471 .def_477)))(let ((.def_481 (and .def_478 .def_480)))(let ((.def_485 (and .def_481 .def_484)))(let ((.def_489 (and .def_485 .def_488)))(let ((.def_493 (and .def_489 .def_492)))(let ((.def_497 (and .def_493 .def_496)))(let ((.def_500 (and .def_497 .def_499)))(let ((.def_502 (and .def_500 .def_501)))(let ((.def_505 (and .def_502 .def_504)))(let ((.def_509 (and .def_505 .def_508)))(let ((.def_511 (and .def_509 .def_510)))(let ((.def_514 (and .def_511 .def_513)))(let ((.def_280 ((_ to_fp 11 53) RNE |main::extraout_fa0@2|)))(let ((.def_282 (fp.eq .def_280 (fp #b0 #b00000000000 #b0000000000000000000000000000000000000000000000000000))))(let ((.def_283 (not .def_282)))(let ((.def_515 (and .def_283 .def_514))).def_515)))))))))))))))))))))))))))))))))))))))))))))))))))))))))))))))))))))))))